
Thu Feb 07 13:01:17 2019: Request 103503 was acted upon.
 Transaction: Queue changed from 0-Help to 0-SDSC by jhidleba
       Queue: 0-SDSC
     Subject: XUP: bank_limit plugin not found
       Owner: Nobody
  Requestors: Aimee.Tomlinson@ung.edu
      Status: new
 Ticket <URL: https://tickets.xsede.org/Ticket/Display.html?id=103503 >


[Ticket created from XUP by atomlins]
[From: Aimee Tomlinson]
[System: Comet]
[Category: Batch Queues/Jobs]
[atomlins@comet-ln2 Linda_Sym_Asym]$ qsub Linda_asym1_1_DFTqc.job
There was an error running the SLURM sbatch command.
The command was:
'/usr/bin/sbatch Linda_asym1_1_DFTqc.job  2>&1'
and the output was:
'sbatch: error: bank_limit plugin: not found user association atomlins
 sbatch: error: Batch job submission failed: Invalid account or account/partition combination specified
'
 I obtained the error above for the job Linda_asym1_1_DFTqc.job.

My job file:

#!/bin/bash
#SBATqcH --nodes=1
#SBATqcH --ntasks-per-node=24
#SBATqcH --mem=101G
#SBATqcH -t 24:00:00
#SBATqcH -J Linda_asym1_1_DFTqc
#SBATqcH -o Linda_asym1_1_DFTqc.out
#SBATqcH -e Linda_asym1_1_DFTqc.err
#SBATqcH --mail-type=ALL
#SBATqcH --mail-user=aimee.tomlinson@ung.edu
#SBATqcH -A TG-DMR160146

module load gaussian
exe=`which g09`
/usr/bin/time $exe < Linda_asym1_1_DFTqc.gjf> Linda_asym1_1_DFTqc.log

My input file:
%nprocshared=24
%mem=101GB
%chk=Linda_asym1_1_DFTqc.chk
# opt freq cc-pvdz scrf=(cpcm,solvent=dichloromethane) geom=connectivity
scf=qc mpw1pbe

Linda_asym1_1_DFTqc

1 2
 C                  2.92665300    0.12331100   -0.01708300
 C                  3.82235100   -0.95364600    0.00484700
 C                  5.17696700   -0.56867300    0.03156800
 C                  5.35297800    0.80697300    0.02869500
 S                  3.83137600    1.63173100    0.00059100
 O                  3.44986200   -2.24463500    0.00231200
 O                  6.20747100   -1.44096400    0.05057000
 C                  4.51819800   -3.14344100    0.34642600
 H                  4.64848800   -3.13459200    1.43941000
 H                  4.18563700   -4.13828700    0.03055200
 C                  5.79869300   -2.75263700   -0.35059000
 H                  6.61036200   -3.43105000   -0.06649900
 H                  5.67490000   -2.77619800   -1.44493500
 C                  1.49860600    0.12418600   -0.02746600
 C                  0.76031100   -1.08214200   -0.05271700
 C                  0.76823200    1.34314400   -0.00660300
 C                 -0.62077500   -1.07213000   -0.04415200
 H                  1.29066900   -2.02820600   -0.07713400
 C                 -0.60216200    1.35449900   -0.00495100
 C                 -1.37001900    0.15486700   -0.01850800
 H                 -1.12175400    2.30742100    0.01074000
 C                 -2.79528300    0.18771900   -0.00732100
 C                 -3.64434300    1.31904600   -0.00276000
 S                 -3.79089800   -1.27100800    0.02820100
 C                 -5.01287000    1.01302400    0.02775100
 O                 -3.20740900    2.58790400   -0.03165000
 C                 -5.26173800   -0.35513600    0.04657700
 O                 -5.99693900    1.93406100    0.02191800
 C                 -4.22416300    3.55142500    0.29224600
 C                 -5.52358500    3.21718100   -0.39894400
 H                 -4.35462900    3.57269900    1.38485800
 H                 -3.83760200    4.51925300   -0.04462300
 H                 -6.30014900    3.94007400   -0.12689200
 H                 -5.39899100    3.21562600   -1.49328700
 S                 -6.85094000   -1.02295200    0.06197400
 S                  6.91059900    1.56056200    0.03973900
 C                 -6.53704100   -2.80645900    0.06004300
 H                 -5.98725300   -3.10380000    0.96162900
 H                 -7.53076800   -3.26901100    0.06688200
 H                 -5.99942400   -3.10373400   -0.84884700
 C                  6.49669200    3.32358000    0.00624700
 H                  5.92465500    3.60713800    0.89889200
 H                  7.46265900    3.84129700    0.01290900
 H                  5.95162000    3.57917800   -0.91136900
 O                 -1.35910600   -2.19250400   -0.06206600
 C                 -0.71788500   -3.46027200   -0.12986500
 H                 -0.12233700   -3.54622400   -1.05041700
 H                 -0.07774200   -3.62197200    0.74941300
 H                 -1.52705900   -4.19709100   -0.14028600
 H                  1.29658100    2.29670500    0.01163500

 1 2 1.5 5 1.0 14 1.5
 2 3 1.5 6 1.5
 3 4 1.5 7 1.0
 4 5 1.0 36 1.0
 5
 6 8 1.0
 7 11 1.0
 8 9 1.0 10 1.0 11 1.0
 9
 10
 11 12 1.0 13 1.0
 12
 13
 14 15 1.5 16 1.5
 15 17 2.0 18 1.0
 16 19 2.0 50 1.0
 17 20 1.5 45 1.5
 18
 19 20 1.5 21 1.0
 20 22 1.5
 21
 22 23 1.5 24 1.0
 23 25 1.5 26 1.5
 24 27 1.0
 25 27 1.5 28 1.0
 26 29 1.0
 27 35 1.0
 28 30 1.0
 29 30 1.0 31 1.0 32 1.0
 30 33 1.0 34 1.0
 31
 32
 33
 34
 35 37 1.0
 36 41 1.0
 37 38 1.0 39 1.0 40 1.0
 38
 39
 40
 41 42 1.0 43 1.0 44 1.0
 42
 43
 44
 45 46 1.0
 46 47 1.0 48 1.0 49 1.0
 47
 48
 49
 50 
